
Gurobi 9.5.0 (linux64) logging started Sun Jan 16 18:01:01 2022

Set parameter LogFile to value "../results/max4cut_numv8/max4cut_numv8_seed1_rand_p0.4_neg0.4_BQO_log.txt"
Gurobi Optimizer version 9.5.0 build v9.5.0rc5 (linux64)
Thread count: 20 physical cores, 40 logical processors, using up to 10 threads
Optimize a model with 8 rows, 32 columns and 32 nonzeros
Model fingerprint: 0x01b96c12
Model has 48 quadratic objective terms
Variable types: 0 continuous, 32 integer (32 binary)
Coefficient statistics:
  Matrix range     [1e+00, 1e+00]
  Objective range  [0e+00, 0e+00]
  QObjective range [2e+00, 2e+00]
  Bounds range     [1e+00, 1e+00]
  RHS range        [1e+00, 1e+00]
Found heuristic solution: objective -0.0000000
Presolve removed 1 rows and 4 columns
Presolve time: 0.00s
Presolved: 47 rows, 68 columns, 148 nonzeros
Variable types: 0 continuous, 68 integer (68 binary)

Root relaxation: objective -7.000000e+00, 22 iterations, 0.00 seconds (0.00 work units)

    Nodes    |    Current Node    |     Objective Bounds      |     Work
 Expl Unexpl |  Obj  Depth IntInf | Incumbent    BestBd   Gap | It/Node Time

     0     0    7.00000    0   11   -0.00000    7.00000      -     -    0s
H    0     0                       4.0000000    7.00000  75.0%     -    0s
H    0     0                       5.0000000    7.00000  40.0%     -    0s
H    0     0                       6.0000000    7.00000  16.7%     -    0s
     0     0    7.00000    0   10    6.00000    7.00000  16.7%     -    0s
     0     0 infeasible    0         6.00000    6.00000  0.00%     -    0s

Cutting planes:
  RLT: 1

Explored 1 nodes (47 simplex iterations) in 0.01 seconds (0.00 work units)
Thread count was 10 (of 40 available processors)

Solution count 4: 6 5 4 -0 

Optimal solution found (tolerance 0.00e+00)
Best objective 6.000000000000e+00, best bound 6.000000000000e+00, gap 0.0000%
